Optimal - objective value -987236.00000000
      0 C0000000          100800                       0
      1 C0000001               0                       0
      2 C0000002          102240                       0
      3 C0000003   1.4551915e-11                       0
      4 C0000004          105120                       0
      5 C0000005               0                       0
      6 C0000006          105120                       0
      7 C0000007               0                       0
      8 C0000008          109440                       0
      9 C0000009               0                       0
     10 C0000010          116640                       0
     11 C0000011               0                       0
     12 C0000012           95040                       0
     13 C0000013               0                       0
     14 C0000014               1                       0
     15 C0000015               1                       0
     16 C0000016               1                       0
     17 C0000017               1                       0
     18 C0000018               1                       0
     19 C0000019               1                       0
     20 C0000020               1                       0
     21 C0000021             155                       1
     22 C0000022  -1.4551915e-11                       1
     23 C0000023              45                       1
     24 C0000024  -1.4551915e-11                       1
     25 C0000025              12                       1
     26 C0000026  -1.4551915e-11                       1
     27 C0000027              15                       1
     28 C0000028  -1.4551915e-11                       1
     29 C0000029              65                       1
     30 C0000030   -2.910383e-11                       1
     31 C0000031  -1.4551915e-11                       1
     32 C0000032  -1.4551915e-11                       1
     33 C0000033               0                       1
     34 C0000034               0                       1
     35 C0000035               0                       0
     36 C0000036               0                       1
     37 C0000037             200                       0
     38 C0000038          101012                       0
     39 C0000039             292                       0
     40 C0000040          148320                      -1
     41 C0000041               0                       1
     42 C0000042             155                       1
     43 C0000043               0                       1
     44 C0000044              45                       1
     45 C0000045  -1.4551915e-11                       1
     46 C0000046              12                       1
     47 C0000047               0                       1
     48 C0000048              15                       1
     49 C0000049  -1.4551915e-11                       1
     50 C0000050              65                       1
     51 C0000051               0                       1
     52 C0000052  -1.4551915e-11                       1
     53 C0000053               0                       1
     54 C0000054  -1.4551915e-11                       1
     55 C0000055  -1.4551915e-11                       1
     56 C0000056               0                       0
     57 C0000057               0                       1
     58 C0000058             200                       0
     59 C0000059          102452                       0
     60 C0000060             292                       0
     61 C0000061          181440                      -1
     62 C0000062   1.4551915e-11                       1
     63 C0000063             155                       1
     64 C0000064  -1.4551915e-11                       1
     65 C0000065              45                       1
     66 C0000066  -1.4551915e-11                       1
     67 C0000067              12                       1
     68 C0000068               0                       1
     69 C0000069              15                       1
     70 C0000070               0                       1
     71 C0000071              65                       1
     72 C0000072   -2.910383e-11                       1
     73 C0000073  -1.4551915e-11                       1
     74 C0000074  -1.4551915e-11                       1
     75 C0000075  -1.4551915e-11                       1
     76 C0000076  -1.4551915e-11                       1
     77 C0000077  -2.8421709e-14                       0
     78 C0000078               0                       1
     79 C0000079             200                       0
     80 C0000080          105332                       0
     81 C0000081             292                       0
     82 C0000082          213120                      -1
     83 C0000083    2.910383e-11                       1
     84 C0000084             155                       1
     85 C0000085  -1.4551915e-11                       1
     86 C0000086              45                       1
     87 C0000087  -1.4551915e-11                       1
     88 C0000088              12                       1
     89 C0000089               0                       1
     90 C0000090              15                       1
     91 C0000091               0                       1
     92 C0000092              65                       1
     93 C0000093   -2.910383e-11                       1
     94 C0000094  -1.4551915e-11                       1
     95 C0000095  -1.4551915e-11                       1
     96 C0000096  -1.4551915e-11                       1
     97 C0000097  -1.4551915e-11                       1
     98 C0000098  -2.8421709e-14                       0
     99 C0000099               0                       1
    100 C0000100             200                       0
    101 C0000101          105332                       0
    102 C0000102             292                       0
    103 C0000103          246240                      -1
    104 C0000104   4.3655746e-11                       1
    105 C0000105             155                       1
    106 C0000106  -1.4551915e-11                       1
    107 C0000107              45                       1
    108 C0000108               0                       1
    109 C0000109              12                       1
    110 C0000110               0                       1
    111 C0000111              15                       1
    112 C0000112   -2.910383e-11                       1
    113 C0000113              65                       1
    114 C0000114  -1.4551915e-11                       1
    115 C0000115  -1.4551915e-11                       1
    116 C0000116  -1.4551915e-11                       1
    117 C0000117  -1.4551915e-11                       1
    118 C0000118               0                       1
    119 C0000119  -2.8421709e-14                       0
    120 C0000120               0                       1
    121 C0000121             200                       0
    122 C0000122          109652                       0
    123 C0000123             292                       0
    124 C0000124          279360                      -1
    125 C0000125    2.910383e-11                       1
    126 C0000126             155                       1
    127 C0000127               0                       1
    128 C0000128              45                       1
    129 C0000129               0                       1
    130 C0000130              12                       1
    131 C0000131               0                       1
    132 C0000132              15                       1
    133 C0000133  -1.4551915e-11                       1
    134 C0000134              65                       1
    135 C0000135  -1.4551915e-11                       1
    136 C0000136  -1.4551915e-11                       1
    137 C0000137   -2.910383e-11                       1
    138 C0000138               0                       1
    139 C0000139  -1.4551915e-11                       1
    140 C0000140  -2.8421709e-14                       0
    141 C0000141               0                       1
    142 C0000142             200                       0
    143 C0000143          116852                       0
    144 C0000144             292                       0
    145 C0000145          311040                      -1
    146 C0000146   4.3655746e-11                       1
    147 C0000147             155                       1
    148 C0000148  -1.4551915e-11                       1
    149 C0000149              45                       1
    150 C0000150               0                       1
    151 C0000151              12                       1
    152 C0000152  -1.4551915e-11                       1
    153 C0000153              15                       1
    154 C0000154               0                       1
    155 C0000155              65                       1
    156 C0000156  -1.4551915e-11                       1
    157 C0000157  -4.3655746e-11                       1
    158 C0000158               0                       1
    159 C0000159  -1.4551915e-11                       1
    160 C0000160  -1.4551915e-11                       1
    161 C0000161               0                       0
    162 C0000162               0                       1
    163 C0000163             200                       0
    164 C0000164           95252                       0
    165 C0000165             292                       0
    166 C0000166          344160                      -1
    167 C0000167   5.8207661e-11                       1
    168 C0000168        -1001512                       0
    169 C0000169        -2998632                       0
    170 C0000170           -1512                       0
    171 C0000171            1368                       0
    172 C0000172           -1512                       0
    173 C0000173            1368                       0
    174 C0000174        -1004392                       0
    175 C0000175         -995752                       0
    176 C0000176           -4392                       0
    177 C0000177            4248                       0
    178 C0000178        -1004392                       0
    179 C0000179         -995752                       0
    180 C0000180           -4392                       0
    181 C0000181        -1995752                       0
    182 C0000182        -1004392                       0
    183 C0000183         -995752                       0
    184 C0000184           -4392                       0
    185 C0000185            4248                       0
    186 C0000186           -8712                       0
    187 C0000187        -1991432                       0
    188 C0000188           -8712                       0
    189 C0000189            8568                       0
    190 C0000190           -8712                       0
    191 C0000191        -1991432                       0
    192 C0000192        -1015912                       0
    193 C0000193        -2984232                       0
    194 C0000194          -15912                       0
    195 C0000195           15768                       0
    196 C0000196          984088                       0
    197 C0000197         -984232                       0
    198 C0000198        -1994312                       0
    199 C0000199        -2005832                       0
    200 C0000200            5688                       0
    201 C0000201           -5832                       0
    202 C0000202            5688                       0
    203 C0000203           -5832                       0
    204 C0000204        -1002952                       0
    205 C0000205         -997192                       0
    206 C0000206           -2952                       0
    207 C0000207            2808                       0
    208 C0000208        -1002952                       0
    209 C0000209         -997192                       0
    210 C0000210        -1002952                       0
    211 C0000211         -997192                       0
    212 C0000212        -1002952                       0
    213 C0000213         -997192                       0
    214 C0000214           -2952                       0
    215 C0000215            2808                       0
    216 C0000216        -1007272                       0
    217 C0000217         -992872                       0
    218 C0000218           -7272                       0
    219 C0000219            7128                       0
    220 C0000220        -1007272                       0
    221 C0000221         -992872                       0
    222 C0000222        -1014472                       0
    223 C0000223        -2985672                       0
    224 C0000224          -14472                       0
    225 C0000225           14328                       0
    226 C0000226          -14472                       0
    227 C0000227           14328                       0
    228 C0000228        -1992872                       0
    229 C0000229        -2007272                       0
    230 C0000230            7128                       0
    231 C0000231           -7272                       0
    232 C0000232            7128                       0
    233 C0000233           -7272                       0
    234 C0000234             -72                       0
    235 C0000235             -72                       0
    236 C0000236        -1000072                       0
    237 C0000237        -1000072                       0
    238 C0000238             -72                       0
    239 C0000239        -2000072                       0
    240 C0000240          995608                       0
    241 C0000241         -995752                       0
    242 C0000242           -4392                       0
    243 C0000243            4248                       0
    244 C0000244        -1004392                       0
    245 C0000245        -2995752                       0
    246 C0000246        -1011592                       0
    247 C0000247         -988552                       0
    248 C0000248          -11592                       0
    249 C0000249           11448                       0
    250 C0000250          -11592                       0
    251 C0000251        -1988552                       0
    252 C0000252         -989992                       0
    253 C0000253        -1010152                       0
    254 C0000254           10008                       0
    255 C0000255          -10152                       0
    256 C0000256           10008                       0
    257 C0000257        -2010152                       0
    258 C0000258          995608                       0
    259 C0000259         -995752                       0
    260 C0000260        -1004392                       0
    261 C0000261         -995752                       0
    262 C0000262        -1004392                       0
    263 C0000263         -995752                       0
    264 C0000264        -1011592                       0
    265 C0000265         -988552                       0
    266 C0000266          -11592                       0
    267 C0000267        -1988552                       0
    268 C0000268          -11592                       0
    269 C0000269           11448                       0
    270 C0000270         -989992                       0
    271 C0000271        -1010152                       0
    272 C0000272         -989992                       0
    273 C0000273        -1010152                       0
    274 C0000274           10008                       0
    275 C0000275          -10152                       0
    276 C0000276           -7272                       0
    277 C0000277        -1992872                       0
    278 C0000278           -7272                       0
    279 C0000279            7128                       0
    280 C0000280        -1007272                       0
    281 C0000281         -992872                       0
    282 C0000282         -985672                       0
    283 C0000283        -1014472                       0
    284 C0000284         1014328                       0
    285 C0000285        -1014472                       0
    286 C0000286           14328                       0
    287 C0000287        -2014472                       0
    288 C0000288        -1978472                       0
    289 C0000289        -2021672                       0
    290 C0000290         1021528                       0
    291 C0000291        -1021672                       0
    292 C0000292         1021528                       0
    293 C0000293        -1021672                       0
      0 X0000000               0                       0
      1 X0000001               1                       0
      2 X0000002               0                       0
      3 X0000003               0                       0
      4 X0000004               0                       0
      5 X0000005               0                       0
      6 X0000006               0                       0
      7 X0000007               1                       0
      8 X0000008               0                       0
      9 X0000009               0                       0
     10 X0000010               1                       0
     11 X0000011               1                       0
     12 X0000012               0                       0
     13 X0000013               1                       0
     14 X0000014               1                       0
     15 X0000015               0                       0
     16 X0000016               0                       0
     17 X0000017               0                       0
     18 X0000018              70                       0
     19 X0000019          -47228                       0
     20 X0000020          148320                       0
     21 X0000021             155                       0
     22 X0000022              45                       0
     23 X0000023              12                       0
     24 X0000024              15                       0
     25 X0000025              65                       0
     26 X0000026             210                     480
     27 X0000027               0                       0
     28 X0000028             210                       0
     29 X0000029               0                       0
     30 X0000030               0                       0
     31 X0000031               0                       0
     32 X0000032               0                       0
     33 X0000033               0                       0
     34 X0000034               0                       0
     35 X0000035               0                       0
     36 X0000036               0                       0
     37 X0000037               0                       0
     38 X0000038               0                       0
     39 X0000039               1                       0
     40 X0000040               0                       0
     41 X0000041               0                       0
     42 X0000042               0                       0
     43 X0000043               0                       0
     44 X0000044              71                       0
     45 X0000045          -78908                       0
     46 X0000046          181440                       0
     47 X0000047             155                       0
     48 X0000048              45                       0
     49 X0000049              12                       0
     50 X0000050              15                       0
     51 X0000051              65                       0
     52 X0000052             213                     480
     53 X0000053               0                       0
     54 X0000054             213                       0
     55 X0000055               0                       0
     56 X0000056               0                       0
     57 X0000057               1                       0
     58 X0000058               0                       0
     59 X0000059               1                       0
     60 X0000060               1                       0
     61 X0000061               0                       0
     62 X0000062               0                       0
     63 X0000063               1                       0
     64 X0000064               0                       0
     65 X0000065               0                       0
     66 X0000066               1                       0
     67 X0000067              73                       0
     68 X0000068         -107708                       0
     69 X0000069          213120                       0
     70 X0000070             155                       0
     71 X0000071              45                       0
     72 X0000072              12                       0
     73 X0000073              15                       0
     74 X0000074              65                       0
     75 X0000075             219                     480
     76 X0000076               0                       0
     77 X0000077             219                       0
     78 X0000078               0                       0
     79 X0000079               1                       0
     80 X0000080               0                       0
     81 X0000081               1                       0
     82 X0000082               0                       0
     83 X0000083               0                       0
     84 X0000084               0                       0
     85 X0000085               0                       0
     86 X0000086               0                       0
     87 X0000087              73                       0
     88 X0000088         -140828                       0
     89 X0000089          246240                       0
     90 X0000090             155                       0
     91 X0000091              45                       0
     92 X0000092              12                       0
     93 X0000093              15                       0
     94 X0000094              65                       0
     95 X0000095             219                     480
     96 X0000096               0                       0
     97 X0000097             219                       0
     98 X0000098               0                       0
     99 X0000099               1                       0
    100 X0000100               0                       0
    101 X0000101               1                       0
    102 X0000102               0                       0
    103 X0000103               1                       0
    104 X0000104              76                       0
    105 X0000105         -169628                       0
    106 X0000106          279360                       0
    107 X0000107             155                       0
    108 X0000108              45                       0
    109 X0000109              12                       0
    110 X0000110              15                       0
    111 X0000111              65                       0
    112 X0000112             228                     480
    113 X0000113               0                       0
    114 X0000114             228                       0
    115 X0000115               1                       0
    116 X0000116               0                       0
    117 X0000117               1                       0
    118 X0000118              81                       0
    119 X0000119         -194108                       0
    120 X0000120          311040                       0
    121 X0000121             155                       0
    122 X0000122              45                       0
    123 X0000123              12                       0
    124 X0000124              15                       0
    125 X0000125              65                       0
    126 X0000126             243                     480
    127 X0000127               0                       0
    128 X0000128             243                       0
    129 X0000129              66                       0
    130 X0000130         -248828                       0
    131 X0000131          344160                       0
    132 X0000132             155                       0
    133 X0000133              45                       0
    134 X0000134              12                       0
    135 X0000135              15                       0
    136 X0000136              65                       0
    137 X0000137             198                     480
    138 X0000138               0                       0
    139 X0000139             198                       0
    140 X0000140          100800                       0
    141 X0000141          102240                       0
    142 X0000142          105120                       0
    143 X0000143          105120                       0
    144 X0000144          109440                       0
    145 X0000145          116640                       0
    146 X0000146           95040                       0
    147 X0000147               0                       0
    148 X0000148               1                       0
    149 X0000149               0                       0
    150 X0000150               0                       0
    151 X0000151               1                       0
    152 X0000152               0                       0
    153 X0000153               0                       0
    154 X0000154               0                       0
    155 X0000155               1                       0
    156 X0000156               1                       0
    157 X0000157               0                       0
    158 X0000158               0                       0
    159 X0000159               0                       0
    160 X0000160               0                       0
    161 X0000161               1                       0
    162 X0000162               0                       0
    163 X0000163               1                       0
    164 X0000164               0                       0
    165 X0000165               0                       0
    166 X0000166               1                       0
    167 X0000167               0                       0
    168 X0000168          100955                       0
    169 X0000169          101000                       0
    170 X0000170          101012                       0
    171 X0000171          101027                       0
    172 X0000172          101092                       0
    173 X0000173          102395                       0
    174 X0000174          102440                       0
    175 X0000175          102452                       0
    176 X0000176          102467                       0
    177 X0000177          102532                       0
    178 X0000178          105275                       0
    179 X0000179          105320                       0
    180 X0000180          105332                       0
    181 X0000181          105347                       0
    182 X0000182          105412                       0
    183 X0000183          105275                       0
    184 X0000184          105320                       0
    185 X0000185          105332                       0
    186 X0000186          105347                       0
    187 X0000187          105412                       0
    188 X0000188          109595                       0
    189 X0000189          109640                       0
    190 X0000190          109652                       0
    191 X0000191          109667                       0
    192 X0000192          109732                       0
    193 X0000193          116795                       0
    194 X0000194          116840                       0
    195 X0000195          116852                       0
    196 X0000196          116867                       0
    197 X0000197          116932                       0
    198 X0000198           95195                       0
    199 X0000199           95240                       0
    200 X0000200           95252                       0
    201 X0000201           95267                       0
    202 X0000202           95332                       0
    203 X0000203          100800                       0
    204 X0000204          100955                       0
    205 X0000205          101000                       0
    206 X0000206          101012                       0
    207 X0000207          101027                       0
    208 X0000208          102240                       0
    209 X0000209          102395                       0
    210 X0000210          102440                       0
    211 X0000211          102452                       0
    212 X0000212          102467                       0
    213 X0000213          105120                       0
    214 X0000214          105275                       0
    215 X0000215          105320                       0
    216 X0000216          105332                       0
    217 X0000217          105347                       0
    218 X0000218          105120                       0
    219 X0000219          105275                       0
    220 X0000220          105320                       0
    221 X0000221          105332                       0
    222 X0000222          105347                       0
    223 X0000223          109440                       0
    224 X0000224          109595                       0
    225 X0000225          109640                       0
    226 X0000226          109652                       0
    227 X0000227          109667                       0
    228 X0000228          116640                       0
    229 X0000229          116795                       0
    230 X0000230          116840                       0
    231 X0000231          116852                       0
    232 X0000232          116867                       0
    233 X0000233           95040                       0
    234 X0000234           95195                       0
    235 X0000235           95240                       0
    236 X0000236           95252                       0
    237 X0000237           95267                       0
